BAYES
20
2 2 2 2 2 2 2 2 3 3 3 3 3 3 3 3 4 5 5 6
20
3 7 19 8
1 0
2 14 9
2 9 1
2 19 16
3 13 14 17
2 0 19
2 19 10
3 7 14 2
2 2 3
3 16 10 4
3 14 16 11
2 19 5
2 5 6
3 11 4 12
2 19 13
2 19 14
2 11 15
2 19 7
2 17 18

36
0.95 0.85 0.8 0.7 0.7 0.25 0.8 0.8 0.8 0.7 0.9 0.8 0.03 0.1 0.15 0.2 0.15 0.25 0.15 0.15 0.15 0.2 0.08 0.15 0.02 0.05 0.05 0.1 0.15 0.5 0.05 0.05 0.05 0.1 0.02 0.05
2
0.1 0.9
9
0.8 0.65 0.45 0.1 0.05 0.05 0.1 0.3 0.5
6
0.9 0.9 0.1 0.1 0.1 0.9
24
0.4 0.02 0.02 0.01 0.01 0.4 0.43 0.09 0.16 0.02 0.03 0.53 0.15 0.09 0.8 0.95 0.95 0.05 0.02 0.8 0.02 0.02 0.01 0.02
45
0.9 0.14 0.15 0.05 0.05 0.05 0.05 0.05 0.24 0.03 0.8 0.01 0.02 0.22 0.02 0.05 0.15 0.33 0.03 0.02 0.79 0.15 0.08 0.4 0.05 0.05 0.03 0.01 0.02 0.04 0.7 0.5 0.4 0.05 0.05 0.34 0.03 0.02 0.01 0.08 0.15 0.13 0.8 0.7 0.06
12
0.2 0.03061224 0.3 0.33673469 0.25 0.29591837 0.15 0.23469388 0.05 0.05102041 0.05 0.05102041
18
0.15 0.1 0.8 1.0 0.33 0.2 0.05 0.8 0.2 0.0 0.33 0.4 0.8 0.1 0.0 0.0 0.34 0.4
12
0.2 0.05 0.4 0.2 0.8 0.6 0.8 0.95 0.6 0.8 0.2 0.4
4
0.8 0.1 0.2 0.9
24
0.95 0.95 0.95 0.95 0.95 0.95 0.95 0.95 0.05 0.5 0.95 0.5 0.05 0.05 0.05 0.05 0.05 0.05 0.05 0.05 0.95 0.5 0.05 0.5
36
0.93 0.15 0.7 0.1 0.1 0.1 0.1 0.05 0.1 0.02 0.1 0.02 0.05 0.8 0.2 0.8 0.75 0.65 0.7 0.65 0.5 0.18 0.3 0.18 0.02 0.05 0.1 0.1 0.15 0.25 0.2 0.3 0.4 0.8 0.6 0.8
12
0.1 0.1 0.1 0.9 0.05 0.1 0.9 0.9 0.9 0.1 0.95 0.9
4
0.9 0.05 0.1 0.95
18
0.1 0.3 0.5 0.4 0.5 0.6 0.3 0.6 0.4 0.5 0.45 0.35 0.6 0.1 0.1 0.1 0.05 0.05
18
0.3 0.2 0.15 0.1 0.3 0.7 0.65 0.05 0.8 0.85 0.1 0.1 0.05 0.75 0.05 0.05 0.6 0.2
18
0.6 0.8 0.8 0.8 0.1 0.03 0.1 0.05 0.05 0.05 0.6 0.25 0.3 0.15 0.15 0.15 0.3 0.72
9
0.1 0.3 0.5 0.3 0.6 0.4 0.6 0.1 0.1
12
0.4 0.3 0.2 0.3 0.7 0.7 0.6 0.7 0.8 0.7 0.3 0.3
25
0.8 0.1 0.1 0.08 0.08 0.06 0.8 0.02 0.02 0.02 0.06 0.02 0.8 0.1 0.1 0.02 0.02 0.02 0.6 0.1 0.06 0.06 0.06 0.2 0.7